c description: Random 3-CNF over 15 variables and 30 clauses
c generator: CNFgen (0.9.0)
c copyright: (C) 2012-2020 Massimo Lauria <massimo.lauria@uniroma1.it>
c url: https://massimolauria.net/cnfgen
c
p cnf 15 30
-2 3 -11 0
4 6 12 0
-2 -5 14 0
-5 9 15 0
2 -3 -12 0
-5 7 -13 0
-4 -9 15 0
2 12 14 0
-4 -8 -14 0
5 -6 -9 0
-2 -5 -12 0
3 -5 -13 0
4 6 -13 0
-4 -7 -13 0
5 -12 13 0
-1 3 -4 0
-5 -8 13 0
-4 9 10 0
-6 -7 -8 0
5 -13 -14 0
-5 8 13 0
4 -9 -15 0
1 -5 11 0
1 3 -13 0
1 7 13 0
-6 -14 -15 0
3 5 -8 0
4 -10 -15 0
-11 12 -13 0
-6 10 -13 0